100 500 10 200 10 100
36 93
93 58
35 173
47 143
81 120
48 25
76 129
82 158
42 160
76 40
83 173
48 197
55 59
28 166
21 196
82 157
14 147
52 76
96 148
86 48
42 172
13 123
64 44
21 128
91 102
96 57
100 93
72 188
60 81
68 181
29 68
34 198
77 142
26 123
28 104
11 191
52 91
84 41
16 37
28 119
45 139
33 25
57 63
51 186
65 200
95 31
75 125
72 94
58 115
76 20
16 190
89 128
62 137
80 27
31 163
81 93
76 123
10 145
26 154
56 110
77 139
28 42
87 173
55 163
95 154
37 117
24 197
38 67
14 48
60 140
69 19
55 101
98 174
84 131
59 187
75 102
97 15
76 10
100 81
44 86
68 181
20 22
12 60
74 153
72 154
96 120
80 137
92 139
58 100
71 37
68 144
96 55
92 85
64 171
18 63
10 13
85 71
74 41
21 94
57 40
